p tdp 113 112
78 99
77 71
2 9
76 64
80 61
67 70
45 81
40 33
39 55
10 110
82 85
98 1
90 54
34 5
78 107
103 72
44 31
62 109
17 49
100 83
20 82
94 81
47 89
6 69
113 41
12 35
87 62
73 38
94 8
37 96
63 47
4 51
32 97
67 55
16 92
59 63
56 26
7 86
58 42
24 58
76 110
74 9
3 97
28 40
11 13
30 97
93 3
50 95
89 39
113 12
108 19
34 78
102 101
85 75
16 82
71 9
23 96
80 56
6 84
104 21
37 42
18 46
36 41
25 70
79 53
106 64
68 66
6 21
102 12
65 15
87 17
44 75
22 32
38 54
95 29
112 103
6 99
4 107
100 60
105 64
35 14
15 88
108 5
57 38
53 1
39 111
43 83
23 48
66 83
66 73
52 93
7 16
53 34
40 112
85 104
91 12
33 59
78 11
109 15
50 27
2 38
90 14
10 22
50 54
56 109
74 61
81 58
65 18
98 55
81 54
94 106
21 8
